Normalized Data/p04_22_normalized_split0.vrp
NAME:p04_22_NORMALIZED_split
BEST_KNOWN: 0
COMMENT: 0
DIMENSION: 623
CAPACITY: 100
EDGE_WEIGHT_FORMAT: FUNCTION
EDGE_WEIGHT_TYPE: EXACT_2D
NODE_COORD_SECTION
1 0.00000 0.00000
2 -17 6
3 -17 6
4 -17 6
5 47 26
6 47 26
7 47 26
8 47 26
9 15 47
10 15 47
11 15 47
12 15 47
13 15 47
14 -37 -50
15 -37 -50
16 -37 -50
17 17 -29
18 17 -29
19 2 40
20 2 40
21 2 40
22 2 40
23 2 40
24 2 40
25 -22 -29
26 -22 -29
27 -22 -29
28 -22 -29
29 -32 -48
30 -32 -48
31 38 -12
32 38 -12
33 38 -12
34 38 -12
35 38 -12
36 38 -12
37 38 -12
38 43 -25
39 43 -25
40 43 -25
41 43 -25
42 9 -10
43 9 -10
44 9 -10
45 48 44
46 48 44
47 48 44
48 -43 44
49 -43 44
50 -43 44
51 -2 -35
52 -2 -35
53 -2 -35
54 -2 -35
55 -2 -35
56 6 43
57 6 43
58 6 43
59 6 43
60 6 43
61 -39 1
62 -39 1
63 -39 1
64 -39 1
65 44 -32
66 44 -32
67 44 -32
68 -6 25
69 -6 25
70 -6 25
71 -6 25
72 -6 25
73 -6 25
74 -47 28
75 -47 28
76 -47 28
77 -47 28
78 -47 28
79 -47 28
80 -47 39
81 -47 39
82 -47 39
83 -47 39
84 -47 39
85 -47 39
86 -16 25
87 -16 25
88 -16 25
89 -16 25
90 -16 25
91 -26 27
92 -26 27
93 22 -20
94 22 -20
95 22 -20
96 22 -20
97 22 -20
98 22 -20
99 -42 -23
100 -42 -23
101 -21 -18
102 -21 -18
103 -21 -18
104 -21 -18
105 -21 -18
106 4 50
107 4 50
108 4 50
109 17 -1
110 17 -1
111 17 -1
112 17 -1
113 -9 13
114 -9 13
115 6 28
116 6 28
117 6 28
118 6 28
119 10 3
120 10 3
121 10 3
122 10 3
123 10 3
124 -29 -19
125 -29 -19
126 -29 -19
127 -29 -19
128 3 -37
129 3 -37
130 3 -37
131 3 -37
132 3 -37
133 -36 50
134 -36 50
135 -36 50
136 -36 50
137 -36 50
138 -36 50
139 -36 50
140 -25 6
141 -25 6
142 30 -15
143 30 -15
144 30 -15
145 30 -15
146 30 -15
147 30 -15
148 44 31
149 44 31
150 44 31
151 3 46
152 3 46
153 3 46
154 3 46
155 3 46
156 3 46
157 19 -45
158 19 -45
159 19 -45
160 27 21
161 27 21
162 27 21
163 27 21
164 27 21
165 -29 -8
166 -29 -8
167 -29 -8
168 -29 -8
169 -29 -8
170 27 -44
171 27 -44
172 27 -44
173 27 -44
174 21 4
175 21 4
176 32 49
177 32 49
178 32 49
179 32 49
180 32 49
181 -31 -8
182 -31 -8
183 -31 -8
184 -31 -8
185 39 -41
186 39 -41
187 39 -41
188 39 -41
189 39 -41
190 -41 26
191 -41 26
192 -41 26
193 -41 26
194 -41 26
195 46 -24
196 46 -24
197 46 -24
198 46 -24
199 46 -24
200 -42 -18
201 -42 -18
202 -42 -18
203 -42 -18
204 -42 -18
205 -11 -50
206 -11 -50
207 -11 -50
208 -11 -50
209 29 -2
210 29 -2
211 26 43
212 26 43
213 26 43
214 26 43
215 26 43
216 26 43
217 0 -3
218 0 -3
219 0 -3
220 0 -3
221 0 -3
222 4 -16
223 4 -16
224 4 -16
225 30 41
226 30 41
227 30 41
228 30 41
229 30 41
230 30 41
231 -49 -22
232 -49 -22
233 -49 -22
234 -49 -22
235 7 -36
236 7 -36
237 7 -36
238 7 -36
239 7 -36
240 7 -36
241 -43 -43
242 -43 -43
243 -43 -43
244 -43 -43
245 -43 -43
246 -7 22
247 -7 22
248 -7 22
249 -7 22
250 -7 22
251 38 8
252 38 8
253 38 8
254 11 22
255 11 22
256 11 22
257 29 -4
258 29 -4
259 29 -4
260 10 44
261 10 44
262 10 44
263 10 44
264 10 44
265 10 44
266 45 -47
267 45 -47
268 19 48
269 19 48
270 19 48
271 -10 -47
272 -10 -47
273 -10 -47
274 -10 -47
275 40 12
276 40 12
277 40 12
278 40 12
279 38 -37
280 38 -37
281 38 -37
282 -30 -17
283 -30 -17
284 -30 -17
285 -30 -17
286 -30 -17
287 -30 -17
288 9 -14
289 9 -14
290 -19 20
291 -19 20
292 -19 20
293 -19 20
294 -19 20
295 30 36
296 30 36
297 30 36
298 30 36
299 30 36
300 -11 3
301 -11 3
302 -11 3
303 -11 3
304 -11 3
305 21 26
306 21 26
307 21 26
308 21 26
309 21 26
310 21 26
311 -35 46
312 -35 46
313 48 -30
314 48 -30
315 48 -30
316 48 -30
317 48 -30
318 30 -15
319 30 -15
320 30 -15
321 30 -15
322 32 22
323 32 22
324 32 22
325 -39 15
326 -39 15
327 -39 15
328 -39 15
329 -39 15
330 -24 21
331 -24 21
332 -24 21
333 -24 21
334 24 33
335 24 33
336 24 33
337 24 33
338 24 33
339 -14 13
340 -14 13
341 -14 13
342 -14 13
343 -14 13
344 -23 4
345 -23 4
346 -23 4
347 -23 4
348 -23 4
349 -23 4
350 -23 4
351 18 -13
352 18 -13
353 18 -13
354 18 -13
355 18 -13
356 -33 -4
357 -33 -4
358 -33 -4
359 9 8
360 9 8
361 9 8
362 9 8
363 -26 -8
364 -26 -8
365 -9 30
366 -9 30
367 -9 30
368 -9 30
369 -9 30
370 22 -42
371 22 -42
372 14 34
373 14 34
374 14 34
375 14 34
376 14 34
377 14 34
378 14 34
379 10 30
380 10 30
381 10 30
382 10 30
383 10 30
384 10 30
385 -17 -8
386 -17 -8
387 -17 -8
388 -17 -8
389 -17 10
390 -17 10
391 -17 10
392 -17 10
393 -17 10
394 -28 -49
395 -28 -49
396 -28 -49
397 -28 -49
398 -28 -49
399 31 -45
400 31 -45
401 31 -45
402 31 -45
403 -49 -32
404 -49 -32
405 -37 29
406 -37 29
407 -15 -47
408 -15 -47
409 -15 -47
410 -15 -47
411 -15 -47
412 45 0
413 45 0
414 39 -10
415 39 -10
416 45 40
417 45 40
418 45 40
419 46 -34
420 46 -34
421 -31 34
422 -31 34
423 -31 34
424 -31 34
425 -31 34
426 7 -49
427 7 -49
428 7 -49
429 7 -49
430 7 -49
431 7 -49
432 39 43
433 39 43
434 -37 34
435 -37 34
436 -37 34
437 -37 34
438 -39 18
439 -39 18
440 -39 18
441 -39 18
442 34 -38
443 34 -38
444 34 -38
445 34 -38
446 34 -38
447 46 -37
448 46 -37
449 46 -37
450 46 -37
451 -24 -34
452 -24 -34
453 -24 -34
454 -24 -34
455 -24 -34
456 -44 -36
457 -44 -36
458 -44 -36
459 -44 -36
460 -44 -36
461 4 -18
462 4 -18
463 4 -18
464 4 -18
465 3 -20
466 3 -20
467 27 -48
468 27 -48
469 27 -48
470 27 -48
471 27 -48
472 27 -48
473 24 -12
474 24 -12
475 24 -12
476 24 -12
477 24 -12
478 24 -12
479 32 14
480 32 14
481 32 14
482 47 7
483 47 7
484 47 7
485 47 7
486 -44 25
487 -44 25
488 -18 46
489 -18 46
490 -18 46
491 -18 46
492 -18 46
493 -37 -14
494 -37 -14
495 -37 -14
496 -37 -14
497 -37 -14
498 -24 -41
499 -24 -41
500 -24 -41
501 -24 -41
502 -29 24
503 -29 24
504 -29 24
505 -29 24
506 -29 24
507 -29 24
508 -29 24
509 -4 -35
510 -4 -35
511 -4 -35
512 -4 -35
513 -4 -35
514 -8 -18
515 -8 -18
516 -8 -18
517 -8 -18
518 -8 -18
519 -8 -18
520 -42 13
521 -42 13
522 -42 13
523 -42 13
524 29 -2
525 29 -2
526 29 -2
527 29 -2
528 29 -2
529 49 -30
530 49 -30
531 49 -30
532 -48 -6
533 -48 -6
534 -48 -6
535 -48 -6
536 -27 -50
537 -27 -50
538 -27 -50
539 -27 -50
540 14 -18
541 14 -18
542 14 -18
543 14 -18
544 -5 -42
545 -5 -42
546 -5 6
547 -5 6
548 -5 6
549 -33 -4
550 -33 -4
551 -33 -4
552 -33 -4
553 -33 -4
554 46 -21
555 5 10
556 5 10
557 5 10
558 -50 -20
559 -50 -20
560 -50 -20
561 -50 -20
562 -49 -39
563 -49 -39
564 -49 -39
565 -49 -39
566 20 -8
567 20 -8
568 20 -8
569 20 -8
570 20 -8
571 -25 -29
572 -25 -29
573 -25 -29
574 -25 -29
575 -25 -29
576 -25 -29
577 5 4
578 5 4
579 -20 9
580 -20 9
581 -20 9
582 2 3
583 2 3
584 2 3
585 2 3
586 2 3
587 2 3
588 2 3
589 47 -14
590 47 -14
591 45 2
592 45 2
593 45 2
594 45 2
595 14 19
596 14 19
597 -3 -47
598 -3 -47
599 -3 -47
600 -48 -34
601 -48 -34
602 38 20
603 38 20
604 38 20
605 38 20
606 38 20
607 8 -23
608 8 -23
609 8 -23
610 8 -23
611 8 -23
612 8 -23
613 -11 29
614 -11 29
615 -11 29
616 -11 29
617 -11 29
618 -16 48
619 -16 48
620 -16 48
621 -16 48
622 -16 48
623 -16 48
DEMAND_SECTION
1 0
2 10
3 1
4 1
5 20
6 1
7 1
8 1
9 20
10 1
11 1
12 1
13 1
14 20
15 20
16 10
17 20
18 10
19 20
20 5
21 1
22 1
23 1
24 1
25 10
26 5
27 1
28 1
29 20
30 1
31 20
32 20
33 5
34 1
35 1
36 1
37 1
38 20
39 5
40 1
41 1
42 20
43 10
44 1
45 20
46 10
47 1
48 20
49 10
50 1
51 20
52 20
53 5
54 1
55 1
56 10
57 5
58 1
59 1
60 1
61 20
62 1
63 1
64 1
65 20
66 20
67 5
68 20
69 5
70 1
71 1
72 1
73 1
74 20
75 10
76 1
77 1
78 1
79 1
80 10
81 5
82 1
83 1
84 1
85 1
86 20
87 20
88 1
89 1
90 1
91 20
92 20
93 20
94 20
95 1
96 1
97 1
98 1
99 20
100 10
101 20
102 5
103 1
104 1
105 1
106 20
107 5
108 1
109 20
110 20
111 5
112 1
113 20
114 10
115 10
116 1
117 1
118 1
119 10
120 1
121 1
122 1
123 1
124 20
125 10
126 1
127 1
128 20
129 10
130 5
131 1
132 1
133 20
134 20
135 5
136 1
137 1
138 1
139 1
140 20
141 1
142 20
143 20
144 1
145 1
146 1
147 1
148 20
149 20
150 10
151 20
152 10
153 5
154 1
155 1
156 1
157 20
158 5
159 1
160 20
161 20
162 5
163 1
164 1
165 20
166 20
167 1
168 1
169 1
170 10
171 1
172 1
173 1
174 20
175 20
176 10
177 1
178 1
179 1
180 1
181 20
182 20
183 5
184 1
185 10
186 1
187 1
188 1
189 1
190 20
191 1
192 1
193 1
194 1
195 20
196 20
197 1
198 1
199 1
200 20
201 20
202 1
203 1
204 1
205 20
206 10
207 5
208 1
209 20
210 10
211 10
212 5
213 1
214 1
215 1
216 1
217 20
218 20
219 1
220 1
221 1
222 20
223 10
224 5
225 20
226 20
227 1
228 1
229 1
230 1
231 10
232 1
233 1
234 1
235 20
236 10
237 5
238 1
239 1
240 1
241 20
242 20
243 1
244 1
245 1
246 20
247 10
248 5
249 1
250 1
251 20
252 20
253 5
254 20
255 5
256 1
257 20
258 20
259 5
260 20
261 20
262 1
263 1
264 1
265 1
266 20
267 10
268 20
269 20
270 1
271 20
272 10
273 1
274 1
275 20
276 5
277 1
278 1
279 20
280 20
281 10
282 20
283 10
284 5
285 1
286 1
287 1
288 20
289 10
290 20
291 20
292 1
293 1
294 1
295 20
296 20
297 5
298 1
299 1
300 20
301 1
302 1
303 1
304 1
305 20
306 10
307 5
308 1
309 1
310 1
311 20
312 1
313 20
314 10
315 5
316 1
317 1
318 20
319 1
320 1
321 1
322 20
323 10
324 5
325 20
326 1
327 1
328 1
329 1
330 20
331 20
332 1
333 1
334 20
335 5
336 1
337 1
338 1
339 20
340 10
341 5
342 1
343 1
344 20
345 10
346 5
347 1
348 1
349 1
350 1
351 20
352 10
353 5
354 1
355 1
356 20
357 20
358 10
359 20
360 10
361 5
362 1
363 20
364 5
365 20
366 5
367 1
368 1
369 1
370 10
371 5
372 20
373 20
374 5
375 1
376 1
377 1
378 1
379 20
380 10
381 5
382 1
383 1
384 1
385 20
386 20
387 5
388 1
389 20
390 20
391 5
392 1
393 1
394 20
395 20
396 1
397 1
398 1
399 20
400 1
401 1
402 1
403 20
404 20
405 10
406 5
407 20
408 5
409 1
410 1
411 1
412 20
413 5
414 10
415 5
416 20
417 5
418 1
419 20
420 5
421 20
422 20
423 1
424 1
425 1
426 20
427 10
428 5
429 1
430 1
431 1
432 20
433 5
434 20
435 5
436 1
437 1
438 20
439 1
440 1
441 1
442 20
443 20
444 1
445 1
446 1
447 20
448 20
449 5
450 1
451 20
452 20
453 1
454 1
455 1
456 20
457 20
458 1
459 1
460 1
461 20
462 10
463 1
464 1
465 20
466 10
467 10
468 5
469 1
470 1
471 1
472 1
473 10
474 5
475 1
476 1
477 1
478 1
479 10
480 1
481 1
482 20
483 1
484 1
485 1
486 20
487 10
488 10
489 1
490 1
491 1
492 1
493 20
494 1
495 1
496 1
497 1
498 10
499 1
500 1
501 1
502 20
503 10
504 5
505 1
506 1
507 1
508 1
509 10
510 1
511 1
512 1
513 1
514 20
515 10
516 5
517 1
518 1
519 1
520 10
521 5
522 1
523 1
524 10
525 5
526 1
527 1
528 1
529 20
530 1
531 1
532 10
533 5
534 1
535 1
536 20
537 20
538 5
539 1
540 10
541 5
542 1
543 1
544 20
545 10
546 20
547 1
548 1
549 10
550 1
551 1
552 1
553 1
554 20
555 20
556 5
557 1
558 20
559 20
560 1
561 1
562 10
563 5
564 1
565 1
566 20
567 20
568 5
569 1
570 1
571 20
572 20
573 1
574 1
575 1
576 1
577 10
578 5
579 20
580 10
581 5
582 20
583 10
584 5
585 1
586 1
587 1
588 1
589 20
590 5
591 20
592 20
593 5
594 1
595 20
596 10
597 20
598 20
599 5
600 10
601 5
602 20
603 1
604 1
605 1
606 1
607 20
608 10
609 1
610 1
611 1
612 1
613 20
614 10
615 1
616 1
617 1
618 20
619 20
620 5
621 1
622 1
623 1
DEPOT_SECTION
1
-1
EOF