Normalized Data/p04_22_normalized_split0.sol
622 -22 18 20 23 21 19 150 155 152 151 153 154 106 107 105 56 59 57 -26 25 24 450 573 571 570 574 572 575 384 -27 452 453 451 454 15 14 13 28 29 498 500 -36 35 34 31 32 30 33 413 250 251 -39 40 37 38 528 530 529 312 313 315 65 -42 539 542 17 16 94 95 92 96 93 97 352 -43 41 350 351 354 353 565 569 568 567 566 -51 50 131 129 127 128 130 236 237 239 235 238 611 610 -64 66 418 419 279 280 278 -68 72 368 366 364 367 365 612 613 246 247 245 249 -74 77 76 73 78 75 81 84 82 83 79 80 49 48 47 404 405 -98 99 599 561 564 563 562 242 241 244 243 240 -100 102 101 103 104 126 123 125 124 282 284 283 281 286 285 -111 110 526 525 209 523 524 208 527 258 257 256 -112 113 88 87 86 85 89 338 -116 117 114 115 55 58 263 262 260 259 261 264 374 373 372 383 382 381 255 -118 122 161 160 335 333 334 337 336 309 306 304 305 -121 119 120 480 479 478 603 602 604 605 7 4 6 5 148 149 147 323 -159 163 162 321 322 601 277 274 275 276 -168 166 165 167 164 362 363 387 385 386 -173 174 109 108 216 -183 181 180 182 550 356 552 548 551 355 549 -199 200 203 232 231 230 233 557 558 560 559 493 494 495 496 -210 213 214 267 269 268 12 9 8 10 11 377 376 375 371 -212 215 211 229 225 227 224 226 228 298 294 297 296 295 -217 141 142 317 145 473 474 475 477 472 476 -218 219 220 54 52 53 596 598 597 544 543 512 509 511 510 508 -223 222 221 462 463 460 461 464 465 -234 430 425 429 427 426 428 156 158 157 369 541 540 -248 616 614 615 487 490 491 488 489 620 617 621 622 618 619 71 70 69 67 585 583 584 -252 484 482 481 483 590 593 591 592 411 412 -271 273 270 272 207 205 204 206 406 407 409 410 408 -288 287 609 608 607 606 514 513 515 516 518 517 -290 292 289 330 331 329 332 339 341 340 342 -291 293 91 90 420 423 421 507 503 502 504 -299 300 1 390 391 388 392 389 545 547 546 -301 303 302 2 3 579 580 578 139 140 347 344 346 343 348 349 345 -308 307 178 177 175 176 179 431 432 45 44 46 415 417 416 -316 314 449 448 446 447 265 266 186 184 188 185 187 444 443 445 -320 318 143 319 144 146 196 195 194 198 197 553 588 589 414 -325 437 438 440 439 486 485 193 190 189 192 191 501 505 506 -326 324 328 327 520 519 521 522 63 62 61 60 533 532 531 534 492 -357 201 202 403 402 600 458 459 455 456 457 -370 169 172 170 171 468 471 467 466 470 469 401 398 400 399 442 441 -380 379 378 254 253 594 595 582 -424 422 310 311 133 135 137 132 138 136 134 434 433 435 436 -497 499 393 397 395 396 394 535 537 538 536 -576 577 358 361 360 359 555 554 556 587 581 586 0 





OBJ=
4444.400
BEST_KNOWN=
0.000